
<<< setup


<<< generate

Version identifier: 12.10.0.0 | 2019-11-26 | 843d4de2ae
CPXPARAM_TimeLimit                               1200
Tried aggregator 2 times.
MIP Presolve eliminated 329903 rows and 188389 columns.
MIP Presolve modified 26100 coefficients.
Aggregator did 262 substitutions.
Reduced MIP has 6095 rows, 6469 columns, and 36824 nonzeros.
Reduced MIP has 6449 binaries, 0 generals, 0 SOSs, and 0 indicators.
Presolve time = 0.34 sec. (242.69 ticks)
Found incumbent of value 0.000000 after 0.45 sec. (307.86 ticks)
Probing time = 0.03 sec. (5.55 ticks)
Tried aggregator 1 time.
Detecting symmetries...
Reduced MIP has 6095 rows, 6469 columns, and 36824 nonzeros.
Reduced MIP has 6449 binaries, 0 generals, 0 SOSs, and 0 indicators.
Presolve time = 0.03 sec. (28.36 ticks)
Probing time = 0.02 sec. (5.09 ticks)
Clique table members: 21075.
MIP emphasis: balance optimality and feasibility.
MIP search method: dynamic search.
Parallel mode: deterministic, using up to 4 threads.
Root relaxation solution time = 0.05 sec. (50.17 ticks)

        Nodes                                         Cuts/
   Node  Left     Objective  IInf  Best Integer    Best Bound    ItCnt     Gap

*     0+    0                            0.0000    53814.0000              --- 
      0     0    53814.0000   351        0.0000    53814.0000     1059     --- 
*     0+    0                         4081.0000    53814.0000              --- 
      0     0    53814.0000   351     4081.0000       Cuts: 5     1136     --- 
      0     0    53814.0000   351     4081.0000    Cuts: 1400     1924     --- 
*     0+    0                         8751.0000    53814.0000           514.95%
      0     0    53814.0000   351     8751.0000      Cuts: 12     2116  514.95%
      0     0    53814.0000   351     8751.0000    Cuts: 1350     2800  514.95%
      0     2    53814.0000   113     8751.0000    53814.0000     2800  514.95%
Elapsed time = 8.08 sec. (5196.43 ticks, tree = 0.02 MB, solutions = 3)
      8     9    53814.0000   255     8751.0000    53814.0000     5636  514.95%
     12    14    53814.0000   320     8751.0000    53814.0000    10504  514.95%
     32     4    53814.0000   150     8751.0000    53814.0000     3003  514.95%
     38    36    53814.0000   233     8751.0000    53814.0000    19918  514.95%
     59    43    53814.0000   257     8751.0000    53814.0000    23460  514.95%
     75    66    53814.0000   300     8751.0000    53814.0000    31067  514.95%
     82    75    infeasible           8751.0000    53814.0000    34202  514.95%
     87    79    53814.0000   225     8751.0000    53814.0000    36691  514.95%
    105    80    53814.0000   250     8751.0000    53814.0000    37306  514.95%
    240   158    52042.5452   178     8751.0000    53814.0000    57159  514.95%
Elapsed time = 13.91 sec. (8594.70 ticks, tree = 2.02 MB, solutions = 3)
    336   238    53814.0000   305     8751.0000    53814.0000    70594  514.95%
    605   353    53814.0000   242     8751.0000    53814.0000    82535  514.95%
    812   510    53814.0000   228     8751.0000    53814.0000    94745  514.95%
   1032   698    53814.0000   247     8751.0000    53814.0000   105253  514.95%
   1288   933    53814.0000   259     8751.0000    53814.0000   120900  514.95%
   1568  1109    53814.0000   267     8751.0000    53814.0000   132238  514.95%
   1842  1343    53814.0000   331     8751.0000    53814.0000   142256  514.95%
   1938  1463    infeasible           8751.0000    53814.0000   157091  514.95%
   2187  1518    53814.0000   267     8751.0000    53814.0000   164143  514.95%

Performing restart 1

Repeating presolve.
Tried aggregator 1 time.
MIP Presolve modified 4056 coefficients.
Reduced MIP has 6095 rows, 6469 columns, and 33650 nonzeros.
Reduced MIP has 6449 binaries, 0 generals, 0 SOSs, and 0 indicators.
Presolve time = 0.03 sec. (23.98 ticks)
Tried aggregator 1 time.
Reduced MIP has 6095 rows, 6469 columns, and 33650 nonzeros.
Reduced MIP has 6449 binaries, 0 generals, 0 SOSs, and 0 indicators.
Presolve time = 0.05 sec. (27.57 ticks)
Represolve time = 0.53 sec. (222.24 ticks)
   2516     0    53814.0000   381     8751.0000      Cuts: 66   183075  514.95%
   2516     0    53814.0000   381     8751.0000     Cuts: 401   184706  514.95%
   2516     0    53814.0000   381     8751.0000      Cuts: 34   184754  514.95%
   2516     0    53814.0000   381     8751.0000     Cuts: 970   185832  514.95%
   2516     0    53814.0000   381     8751.0000      Cuts: 17   186050  514.95%
   2516     0    53814.0000   381     8751.0000     Cuts: 737   186313  514.95%
*  2516+    0                        13724.0000    53814.0000           292.12%
   2516     0    53814.0000   381    13724.0000      Cuts: 50   186456  292.12%
   2516     0    53814.0000   381    13724.0000     Cuts: 409   187235  292.12%
*  2516+    0                        18877.0000    53814.0000           185.08%
*  2516+    0                        19000.0000    53814.0000           183.23%
   2516     0        cutoff          19000.0000    53814.0000   187235  183.23%
   2516     2    53814.0000   108    19000.0000    53814.0000   187235  183.23%
Elapsed time = 48.61 sec. (31893.98 ticks, tree = 0.02 MB, solutions = 6)
   2518     4    53814.0000   226    19000.0000    53814.0000   188462  183.23%
   2520     3    53814.0000   376    19000.0000    53814.0000   192442  183.23%
   2523     7    53814.0000   424    19000.0000    53814.0000   196871  183.23%
   2526    12    53814.0000   338    19000.0000    53814.0000   204838  183.23%
   2532    15    53814.0000   314    19000.0000    53814.0000   208511  183.23%
   2534    17    53814.0000   349    19000.0000    53814.0000   215635  183.23%
   2544    19    53814.0000   419    19000.0000    53814.0000   216692  183.23%
   2549    27    53814.0000   307    19000.0000    53814.0000   228124  183.23%
   2553    20    53814.0000   610    19000.0000    53814.0000   230877  183.23%
   2557    32    53814.0000   506    19000.0000    53814.0000   238469  183.23%
Elapsed time = 65.00 sec. (43734.35 ticks, tree = 0.11 MB, solutions = 6)
   2561    32    53814.0000   437    19000.0000    53814.0000   248740  183.23%
   2564    30    53814.0000   485    19000.0000    53814.0000   250019  183.23%
   2568    34    53814.0000   292    19000.0000    53814.0000   270177  183.23%
   2573    36    53814.0000   489    19000.0000    53814.0000   277375  183.23%
   2580    40    53814.0000   593    19000.0000    53814.0000   292440  183.23%
   2588    41    53814.0000   438    19000.0000    53814.0000   293060  183.23%
   2603    48    53814.0000   273    19000.0000    53814.0000   297828  183.23%
   2630    62    53814.0000   353    19000.0000    53814.0000   300688  183.23%
   2660    74    53814.0000   256    19000.0000    53814.0000   301769  183.23%
   2703    76    53814.0000   209    19000.0000    53814.0000   302746  183.23%
Elapsed time = 81.75 sec. (55933.85 ticks, tree = 0.22 MB, solutions = 6)
   2755    94    51806.0000   266    19000.0000    53814.0000   306459  183.23%
   2846    99    53814.0000   213    19000.0000    53814.0000   307639  183.23%
   2943   109    53814.0000   166    19000.0000    53814.0000   308912  183.23%
   3164   127    53814.0000   253    19000.0000    53814.0000   312382  183.23%
   3340   137    53814.0000   193    19000.0000    53814.0000   318400  183.23%
   3615   145    53814.0000   199    19000.0000    53814.0000   317170  183.23%
   4015   176    53814.0000   182    19000.0000    53814.0000   323757  183.23%
   4362   212    53814.0000   143    19000.0000    53814.0000   340067  183.23%
   4518   215    53814.0000   185    19000.0000    53814.0000   343336  183.23%
   4616   210    53814.0000   193    19000.0000    53814.0000   335533  183.23%
Elapsed time = 96.70 sec. (66540.55 ticks, tree = 0.45 MB, solutions = 6)
   4874   231    53814.0000   171    19000.0000    53814.0000   350168  183.23%
   5297   224    53814.0000   184    19000.0000    53814.0000   352909  183.23%
   5809   242    53814.0000   171    19000.0000    53814.0000   360901  183.23%
   6117   241    infeasible          19000.0000    53814.0000   365604  183.23%
   6160   213    infeasible          19000.0000    53814.0000   378405  183.23%
   6180   184    infeasible          19000.0000    53814.0000   387183  183.23%
   6201   150    53814.0000   245    19000.0000    53814.0000   397574  183.23%
   6212   151    53814.0000   249    19000.0000    53814.0000   398590  183.23%
   6226   143    infeasible          19000.0000    53814.0000   403621  183.23%
   6240   135    53814.0000   232    19000.0000    53814.0000   410909  183.23%
Elapsed time = 111.94 sec. (76640.66 ticks, tree = 0.28 MB, solutions = 6)
   6266   140    53814.0000   348    19000.0000    53814.0000   418160  183.23%
   6275   133    infeasible          19000.0000    53814.0000   422087  183.23%
   6287   131    infeasible          19000.0000    53814.0000   432624  183.23%
   6295   137    53814.0000   239    19000.0000    53814.0000   434858  183.23%
   6384   154    53814.0000    99    19000.0000    53814.0000   438673  183.23%
   6671   166    53814.0000   120    19000.0000    53814.0000   443667  183.23%
   7088   228    53814.0000    95    19000.0000    53814.0000   459536  183.23%
   7745   216    53814.0000   106    19000.0000    53814.0000   459951  183.23%
   8329   261    53814.0000   111    19000.0000    53814.0000   477455  183.23%
   8503   255    infeasible          19000.0000    53814.0000   490799  183.23%
Elapsed time = 126.91 sec. (86817.73 ticks, tree = 0.48 MB, solutions = 6)
   8533   234    infeasible          19000.0000    53814.0000   500100  183.23%
   8550   207    infeasible          19000.0000    53814.0000   514700  183.23%
   8569   208    53814.0000   198    19000.0000    53814.0000   516570  183.23%
   8584   185    infeasible          19000.0000    53814.0000   536432  183.23%
   8605   181    infeasible          19000.0000    53814.0000   543183  183.23%
   8627   181    infeasible          19000.0000    53814.0000   543773  183.23%
   8642   176    53814.0000   272    19000.0000    53814.0000   554555  183.23%
   8767   179    53814.0000   222    19000.0000    53814.0000   561603  183.23%
   9024   189    53814.0000   180    19000.0000    53814.0000   564521  183.23%
   9363   216    infeasible          19000.0000    53814.0000   582929  183.23%
Elapsed time = 141.70 sec. (96671.37 ticks, tree = 0.42 MB, solutions = 6)
   9667   226    53814.0000   234    19000.0000    53814.0000   587783  183.23%
   9722   224    53814.0000   227    19000.0000    53814.0000   594085  183.23%
   9738   246    53814.0000   213    19000.0000    53814.0000   607746  183.23%
   9755   227    infeasible          19000.0000    53814.0000   614476  183.23%
   9769   206    53814.0000   221    19000.0000    53814.0000   635435  183.23%
   9786   195    infeasible          19000.0000    53814.0000   646071  183.23%
   9804   199    53814.0000   198    19000.0000    53814.0000   648141  183.23%
   9828   205    53814.0000   226    19000.0000    53814.0000   649974  183.23%
   9917   211    infeasible          19000.0000    53814.0000   660248  183.23%
  10045   213    53814.0000   154    19000.0000    53814.0000   666365  183.23%
Elapsed time = 156.95 sec. (106494.04 ticks, tree = 0.42 MB, solutions = 6)
  10324   248    53498.7512   144    19000.0000    53814.0000   667459  183.23%
  10588   257    infeasible          19000.0000    53814.0000   678933  183.23%
  10701   328    infeasible          19000.0000    53814.0000   695561  183.23%
  10728   340    infeasible          19000.0000    53814.0000   706353  183.23%
  10746   309    infeasible          19000.0000    53814.0000   715801  183.23%
  10768   306    infeasible          19000.0000    53814.0000   717681  183.23%
  10789   293    infeasible          19000.0000    53814.0000   726444  183.23%
  10830   294    53814.0000   208    19000.0000    53814.0000   731468  183.23%
  11004   320    53814.0000   186    19000.0000    53814.0000   735321  183.23%
  11967   439    infeasible          19000.0000    53814.0000   777906  183.23%
Elapsed time = 176.00 sec. (119262.14 ticks, tree = 0.92 MB, solutions = 6)
  12079   340    53814.0000   163    19000.0000    53814.0000   798094  183.23%
  12183   298    53814.0000   165    19000.0000    53814.0000   822230  183.23%
  12829   315    53814.0000   209    19000.0000    53814.0000   838104  183.23%
  13190   378    infeasible          19000.0000    53814.0000   881071  183.23%
  13262   328    infeasible          19000.0000    53814.0000   898294  183.23%
  14057   582    53814.0000   286    19000.0000    53814.0000   930894  183.23%
  14604   562    53814.0000   254    19000.0000    53814.0000   947346  183.23%
  14673   661    53814.0000   224    19000.0000    53814.0000   967503  183.23%
  15722   684    infeasible          19000.0000    53814.0000   997772  183.23%
  16434   824    53814.0000   156    19000.0000    53814.0000  1038588  183.23%
Elapsed time = 233.55 sec. (157780.89 ticks, tree = 1.99 MB, solutions = 6)
  16537   717    infeasible          19000.0000    53814.0000  1062260  183.23%
  16793   744    49049.0000   111    19000.0000    53814.0000  1077797  183.23%
  17789   835    infeasible          19000.0000    53814.0000  1117829  183.23%
  17990   886    infeasible          19000.0000    53814.0000  1140285  183.23%
  18817   947    53814.0000    91    19000.0000    53814.0000  1158202  183.23%
  20475  1055    53814.0000    95    19000.0000    53814.0000  1194594  183.23%
* 20985+ 1176                        47945.0000    53814.0000            12.24%
  21067  1201    infeasible          47945.0000    53814.0000  1237552   12.24%
* 21083  1218      integral     0    51741.0000    53814.0000  1243938    4.01%
* 21845+  855                        53814.0000    53814.0000             0.00%
  22117   979    53079.0000    72    53814.0000    53814.0000  1256349    0.00%

GUB cover cuts applied:  3
Clique cuts applied:  4
Implied bound cuts applied:  305
Flow cuts applied:  3
Mixed integer rounding cuts applied:  8

Root node processing (before b&c):
  Real time             =    8.08 sec. (5180.08 ticks)
Parallel b&c, 4 threads:
  Real time             =  273.80 sec. (185166.08 ticks)
  Sync time (average)   =   15.70 sec.
  Wait time (average)   =    0.02 sec.
                          ------------
Total (root+branch&cut) =  281.88 sec. (190346.16 ticks)

<<< solve


OBJECTIVE: 53814

<<< post process


<<< done

